boundary     p p p
units        metal
atom_style   atomic

# Units
#  mass              = grams/mole
#  distance          = Angstroms
#  time              = picoseconds
#  energy            = eV
#  velocity          = Angstroms/picosecond
#  force             = eV/Angstrom
#  torque            = eV
#  temperature       = Kelvin
#  pressure          = bars
#  dynamic viscosity = Poise
#  charge            = multiple of electron charge (1.0 is a proton)
#  dipole            = charge*Angstroms
#  electric field    = volts/Angstrom
#  density           = gram/cm^dim


# geometry
read_restart restart.in

reset_timestep 0

mass      1 12.0107
mass      2 28.0855


## Tersoff
#pair_style   tersoff
#pair_coeff   * * SiC.tersoff C Si

# GAP
pair_style   quip
pair_coeff   * * gap/gp.xml "IP GAP" 6 14

neighbor     2. nsq
neigh_modify every 1 delay 0 check yes


###################################
# npt
###################################
# Variables
variable block     equal 10                     # 0.01ns blocks

variable dt        equal  5e-4                     # 0.5 femtoseconds
variable steps     equal  ${block}/${dt}           # Number of steps per slammer run


variable outp_evry equal  1    # Output co-ords 1/1 frames
variable thrm_evry equal  1    # Output thermal 1/1 frames

variable Tstart    equal  3000
variable Tstop     equal  3000
variable pres      equal  1

variable Tdamp     equal  ${dt}*100 # 100
variable Pdamp     equal  ${dt}*150

# Set the timestep
timestep       ${dt}


# Output
#                    1    2    3    4  5  6      7     8       9   10 11 12 13  14  15  16  17  18
thermo_style  custom step time temp pe ke etotal press density vol lx ly lz xlo xhi ylo yhi zlo zhi
thermo_modify format line "%i %G %G %G %G %G %G %G %G %G %G %G %G %G %G %G %G %G"
thermo        ${thrm_evry}

#--------------------------------
# Equilibrate
fix  1 all npt temp ${Tstart} ${Tstop} ${Tdamp} iso ${pres} ${pres} ${Pdamp}
dump 1 all netcdf ${outp_evry} dump.${Tstart}K-equil.nc element mass x y z vx vy vz fx fy fz xu yu zu

# 10 ps
run ${steps}
write_restart restart.${Tstart}K-equil
